p cnf 48 79                 
-3 10 0
-4 10 0
3 4 -10 0
-1 9 0
-2 9 0
1 2 -9 0
-10 -9 -11 0
11 -13 0
9 10 -12 0
12 -13 0
13 -32 0
12 -17 0
-2 15 0
-4 15 0
-1 14 0
-3 14 0
-15 -14 -16 0
16 -17 0
17 -32 0
-7 19 0
-8 19 0
7 8 -19 0
-5 18 0
-6 18 0
5 6 -18 0
-19 -18 -20 0
20 -22 0
18 19 -21 0
21 -22 0
22 -32 0
21 -26 0
-6 24 0
-8 24 0
-5 23 0
-7 23 0
-24 -23 -25 0
25 -26 0
26 -32 0
-4 -27 0
-3 -27 0
-2 -27 0
27 -31 0
-4 -28 0
-3 -28 0
-1 -28 0
28 -31 0
-4 -29 0
-2 -29 0
-1 -29 0
29 -31 0
-3 -30 0
-2 -30 0
-1 -30 0
30 -31 0
31 -32 0
-1 4 -33 0
33 -47 0
-1 -4 34 0
1 4 34 0
-4 4 34 0
-2 3 -35 0
-34 35 -36 0
36 -47 0
-2 -3 37 0
2 3 37 0
-3 3 37 0
-34 -37 38 0
-5 8 -39 0
-38 39 -40 0
40 -47 0
-5 -8 41 0
5 8 41 0
-8 8 41 0
-38 -41 42 0
-6 7 -43 0
-42 43 -44 0
44 -47 0
32 0
47 0
